12 48 6 10
1 16 9 1 8 20 20 14 9 14 12 10 6 8 2 6 6 6 8 17 2 18 9 8 8 5 20 15 17 2 7 9 20 11 12 11 7 16 11 12 17 9 17 19 6 1 19 10 
3.63 6.35 3.77 1.25 4.68 7.16 7.6 6.09 2.39 2.48 4.57 5.41 4.72 0.15 5.98 3.06 4.99 6.11 4.94 0.96 1.75 1.81 3.05 2.44 0.13 1.24 1.2 3.26 3.53 6.31 6.01 2.84 2.69 5.88 2.61 0.09 1.96 2.6 6.14 7.43 2.41 1.6 3.2 3.71 4.33 6.83 3.7 6.74 
5.4 2 0.87 3.56 3.51 4.24 1.35 1.11 6.11 1.61 0.24 7.5 7.86 4.4 7.5 3.21 6.41 6.28 2.5 7.8 6.48 2.22 3.64 3.42 1.82 7.5 7.67 0.01 4.94 1.32 0.31 0.51 5.3 7.5 2.52 5.29 1.53 7.94 6.83 0.84 0.83 0.74 0.67 7.78 6.84 3.25 5.89 0.87 
6.73 5.3 6.86 2.21 4.38 0.68 6 7.46 5.97 3.05 0.54 1.54 4.99 0.82 7.09 2.98 2.87 7.58 5.2 4.17 1.34 7.22 6.89 2.33 3.52 5.86 5.6 2.58 2.67 7.95 6.75 1 4.66 5.68 3.53 3.32 5.82 4.42 1 0.9 0.04 7.46 7.23 4.38 3.57 6.71 6.67 7.81 
7.34 4.05 4.16 1.19 2.78 0.61 6.22 7.86 0.92 7.49 2.46 5.89 1.14 5.52 0.18 1.23 2.17 3.14 2.82 0.3 2.2 0.1 3.02 1.23 3.16 2.57 6.1 7.67 4.07 0.83 5.1 5.92 4.83 0.56 5.18 3.26 3.17 6.78 2.45 5.18 3.67 2.32 3.9 6.5 3.34 3.39 5.84 2.93 
2.09 3.97 4.87 3.58 7.34 7.65 1.66 1.95 7.79 1.24 7.22 3.34 1.15 4.27 1.64 3.42 1.53 2.54 2.45 0.21 6.29 3.08 1.8 5.39 5.91 7.44 0.5 3.51 0.76 5.83 5.42 1.82 7.06 6.19 1.35 7.76 1.99 3.75 7.59 2.29 2.33 3.13 1.02 0.05 4.48 6.96 1.3 5.56 
4.86 7.44 1.73 6.03 3.32 2.76 2.24 6.55 1.37 1.89 1.75 2.19 1.11 3.03 0.19 0.95 6.57 4.35 7.7 4.83 2.27 7.29 3.56 1.41 6.3 4.59 3.08 4.42 2.63 4.41 5.02 1.84 4.72 3.53 3.67 6.62 6 4.01 6.48 5.2 5.52 0.93 7.19 5.58 3.39 2.98 2.8 1.85 
4 4 4 4 4 4 4 4 4 4 4 4 4 4 4 4 4 4 4 4 4 4 4 4 4 4 4 4 4 4 4 4 4 4 4 4 4 4 4 4 4 4 4 4 4 4 4 4 
3.01 0.07 4.84 1.8 1.88 6.63 0.8 4.04 4.57 3.67 3.25 7.32 0.96 3.17 0.77 6.16 6.63 6.18 2.88 1.34 7.32 3.32 3.98 0.43 6.57 3.14 4.74 7.86 6.89 6.85 7.23 0.52 1.5 7.05 5.35 7.32 4.13 7.55 4.79 7.41 1.61 1.28 1.81 0.36 0.82 2.37 2.79 6.12 
7.84 5.2 5.55 5.69 5.29 3.95 5.81 5.04 2.03 1.01 7.8 0.03 5.04 1.65 0.53 2.65 6.89 5.23 6.18 3.38 6.34 2.94 7.69 5.47 3.61 0.19 6.54 1.28 7.82 1.91 4.93 5.31 3.73 6 6.83 4.92 3.89 4.6 4.27 2.54 5.09 0.96 7.22 2.17 6.02 5.91 5.45 3.54 
3.32 1.43 0.67 5.5 6.77 7.13 3.27 5.9 6.32 7.79 5.78 0.99 1.99 7.61 3.8 7.94 3.36 5.88 7.2 4.49 0.9 4.43 2.73 3.58 3.97 0.46 6.26 6.71 0.84 0.65 1.41 6.82 5.07 5.36 6.7 4.46 1.25 2.75 7.61 2.36 7.8 2.46 5.47 4.76 7.01 3.03 3.55 5.21 
0.08 5.13 2.65 5.36 5.48 7.74 4.14 5.42 4.71 7.25 5.79 0.99 4.69 6.99 6.67 3.6 7.97 1.16 5.6 2.23 3.37 5.84 4.11 1.37 2.07 3.62 2.45 2.93 7.2 0.29 4.78 3.15 3.35 7.48 4.51 2.44 3.7 5.4 7.11 7.15 1.19 0.05 4.87 4.93 2.92 0.79 5.35 3.25 
0.54 0.63 7.79 6.68 0.17 0.17 0.79 2.52 7.91 6.83 4.33 5.88 0.43 3.65 3.26 4.18 5.77 5.72 1.82 4.31 6.91 3.27 7.05 5.26 5.65 0.51 2.05 0.75 6.38 6.28 4.39 5.65 5.72 6.25 1.21 5.3 3.42 3.78 3.24 1.8 5.53 6.24 3.25 3.09 5.74 3.93 0.26 5.29 
1 1 1 1 1 1 1 1 1 1 1 1 1 1 1 1 1 1 1 1 1 1 1 1 1 1 1 1 1 1 1 1 1 1 1 1 1 1 1 1 1 1 1 1 1 1 1 1 
1 1 1 1 1 1 1 1 1 1 1 1 1 1 1 1 1 1 1 1 1 1 1 1 1 1 1 1 1 1 1 1 1 1 1 1 1 1 1 1 1 1 1 1 1 1 1 1 
1 1 1 1 1 1 1 1 1 1 1 1 1 1 1 1 1 1 1 1 1 1 1 1 1 1 1 1 1 1 1 1 1 1 1 1 1 1 1 1 1 1 1 1 1 1 1 1 
1 1 1 1 1 1 1 1 1 1 1 1 1 1 1 1 1 1 1 1 1 1 1 1 1 1 1 1 1 1 1 1 1 1 1 1 1 1 1 1 1 1 1 1 1 1 1 1 
1 1 1 1 1 1 1 1 1 1 1 1 1 1 1 1 1 1 1 1 1 1 1 1 1 1 1 1 1 1 1 1 1 1 1 1 1 1 1 1 1 1 1 1 1 1 1 1 
1 1 1 1 1 1 1 1 1 1 1 1 1 1 1 1 1 1 1 1 1 1 1 1 1 1 1 1 1 1 1 1 1 1 1 1 1 1 1 1 1 1 1 1 1 1 1 1 
1 1 1 1 1 1 1 1 1 1 1 1 1 1 1 1 1 1 1 1 1 1 1 1 1 1 1 1 1 1 1 1 1 1 1 1 1 1 1 1 1 1 1 1 1 1 1 1 
1 1 1 1 1 1 1 1 1 1 1 1 1 1 1 1 1 1 1 1 1 1 1 1 1 1 1 1 1 1 1 1 1 1 1 1 1 1 1 1 1 1 1 1 1 1 1 1 
1 1 1 1 1 1 1 1 1 1 1 1 1 1 1 1 1 1 1 1 1 1 1 1 1 1 1 1 1 1 1 1 1 1 1 1 1 1 1 1 1 1 1 1 1 1 1 1 
1 1 1 1 1 1 1 1 1 1 1 1 1 1 1 1 1 1 1 1 1 1 1 1 1 1 1 1 1 1 1 1 1 1 1 1 1 1 1 1 1 1 1 1 1 1 1 1 
1 1 1 1 1 1 1 1 1 1 1 1 1 1 1 1 1 1 1 1 1 1 1 1 1 1 1 1 1 1 1 1 1 1 1 1 1 1 1 1 1 1 1 1 1 1 1 1 
1 1 1 1 1 1 1 1 1 1 1 1 1 1 1 1 1 1 1 1 1 1 1 1 1 1 1 1 1 1 1 1 1 1 1 1 1 1 1 1 1 1 1 1 1 1 1 1 
0.01 0.01 0.01 0.01 0.01 0.01 0.01 0.01 0.01 0.01 0.01 0.01 0.01 0.01 0.01 0.01 0.01 0.01 0.01 0.01 0.01 0.01 0.01 0.01 0.01 0.01 0.01 0.01 0.01 0.01 0.01 0.01 0.01 0.01 0.01 0.01 0.01 0.01 0.01 0.01 0.01 0.01 0.01 0.01 0.01 0.01 0.01 0.01 
0.02 0.02 0.02 0.02 0.02 0.02 0.02 0.02 0.02 0.02 0.02 0.02 0.02 0.02 0.02 0.02 0.02 0.02 0.02 0.02 0.02 0.02 0.02 0.02 0.02 0.02 0.02 0.02 0.02 0.02 0.02 0.02 0.02 0.02 0.02 0.02 0.02 0.02 0.02 0.02 0.02 0.02 0.02 0.02 0.02 0.02 0.02 0.02 
0.03 0.03 0.03 0.03 0.03 0.03 0.03 0.03 0.03 0.03 0.03 0.03 0.03 0.03 0.03 0.03 0.03 0.03 0.03 0.03 0.03 0.03 0.03 0.03 0.03 0.03 0.03 0.03 0.03 0.03 0.03 0.03 0.03 0.03 0.03 0.03 0.03 0.03 0.03 0.03 0.03 0.03 0.03 0.03 0.03 0.03 0.03 0.03 
0.04 0.04 0.04 0.04 0.04 0.04 0.04 0.04 0.04 0.04 0.04 0.04 0.04 0.04 0.04 0.04 0.04 0.04 0.04 0.04 0.04 0.04 0.04 0.04 0.04 0.04 0.04 0.04 0.04 0.04 0.04 0.04 0.04 0.04 0.04 0.04 0.04 0.04 0.04 0.04 0.04 0.04 0.04 0.04 0.04 0.04 0.04 0.04 
0.05 0.05 0.05 0.05 0.05 0.05 0.05 0.05 0.05 0.05 0.05 0.05 0.05 0.05 0.05 0.05 0.05 0.05 0.05 0.05 0.05 0.05 0.05 0.05 0.05 0.05 0.05 0.05 0.05 0.05 0.05 0.05 0.05 0.05 0.05 0.05 0.05 0.05 0.05 0.05 0.05 0.05 0.05 0.05 0.05 0.05 0.05 0.05 
0.06 0.06 0.06 0.06 0.06 0.06 0.06 0.06 0.06 0.06 0.06 0.06 0.06 0.06 0.06 0.06 0.06 0.06 0.06 0.06 0.06 0.06 0.06 0.06 0.06 0.06 0.06 0.06 0.06 0.06 0.06 0.06 0.06 0.06 0.06 0.06 0.06 0.06 0.06 0.06 0.06 0.06 0.06 0.06 0.06 0.06 0.06 0.06 
0.07 0.07 0.07 0.07 0.07 0.07 0.07 0.07 0.07 0.07 0.07 0.07 0.07 0.07 0.07 0.07 0.07 0.07 0.07 0.07 0.07 0.07 0.07 0.07 0.07 0.07 0.07 0.07 0.07 0.07 0.07 0.07 0.07 0.07 0.07 0.07 0.07 0.07 0.07 0.07 0.07 0.07 0.07 0.07 0.07 0.07 0.07 0.07 
0.2 0.2 0.2 0.2 0.2 0.2 0.2 0.2 0.2 0.2 0.2 0.2 0.2 0.2 0.2 0.2 0.2 0.2 0.2 0.2 0.2 0.2 0.2 0.2 0.2 0.2 0.2 0.2 0.2 0.2 0.2 0.2 0.2 0.2 0.2 0.2 0.2 0.2 0.2 0.2 0.2 0.2 0.2 0.2 0.2 0.2 0.2 0.2 
0.4 0.4 0.4 0.4 0.4 0.4 0.4 0.4 0.4 0.4 0.4 0.4 0.4 0.4 0.4 0.4 0.4 0.4 0.4 0.4 0.4 0.4 0.4 0.4 0.4 0.4 0.4 0.4 0.4 0.4 0.4 0.4 0.4 0.4 0.4 0.4 0.4 0.4 0.4 0.4 0.4 0.4 0.4 0.4 0.4 0.4 0.4 0.4 
0.6 0.6 0.6 0.6 0.6 0.6 0.6 0.6 0.6 0.6 0.6 0.6 0.6 0.6 0.6 0.6 0.6 0.6 0.6 0.6 0.6 0.6 0.6 0.6 0.6 0.6 0.6 0.6 0.6 0.6 0.6 0.6 0.6 0.6 0.6 0.6 0.6 0.6 0.6 0.6 0.6 0.6 0.6 0.6 0.6 0.6 0.6 0.6 
0.8 0.8 0.8 0.8 0.8 0.8 0.8 0.8 0.8 0.8 0.8 0.8 0.8 0.8 0.8 0.8 0.8 0.8 0.8 0.8 0.8 0.8 0.8 0.8 0.8 0.8 0.8 0.8 0.8 0.8 0.8 0.8 0.8 0.8 0.8 0.8 0.8 0.8 0.8 0.8 0.8 0.8 0.8 0.8 0.8 0.8 0.8 0.8 
1 1 1 1 1 1 1 1 1 1 1 1 1 1 1 1 1 1 1 1 1 1 1 1 1 1 1 1 1 1 1 1 1 1 1 1 1 1 1 1 1 1 1 1 1 1 1 1 
